%mem=20GB
%nprocshared=16
%chk=first.chk
# hf/3-21g opt density=current

first.pdb

0 1
 O                 -0.65800000   -2.98100000    1.61000000
 C                 -0.38000000   -1.77100000    1.40800000
 N                  0.89400000   -1.21800000    1.89000000
 C                  1.91400000   -2.27600000    1.89900000
 S                  1.49500000   -3.76700000    2.13400000
 N                  3.32900000   -1.93600000    1.68700000
 C                  3.42300000   -0.74900000    0.82500000
 C                  4.49500000   -0.59200000    0.01000000
 C                  4.58600000    0.65000000   -0.88700000
 C                  3.59000000    1.56000000   -0.84100000
 C                  2.39800000    1.32500000    0.10500000
 N                  2.34900000    0.26400000    0.85300000
 C                 -1.37600000   -0.86800000    0.65600000
 C                 -2.57900000   -1.31600000    0.18300000
 C                 -3.33100000   -0.10900000   -0.29600000
 C                 -4.56500000    0.02100000   -0.81000000
 C                 -5.05200000    1.45900000   -1.11000000
 C                 -4.23300000    2.53000000   -0.84900000
 C                 -2.80600000    2.30500000   -0.28400000
 C                 -2.40900000    1.03600000   -0.06900000
 O                 -1.12000000    0.56000000    0.38400000
 H                  1.18700000   -0.47800000    1.28400000
 H                  3.79400000   -2.70400000    1.24800000
 H                  5.27100000   -1.32800000   -0.00700000
 H                  5.42400000    0.79200000   -1.53700000
 H                  3.62900000    2.43400000   -1.45600000
 H                  1.60500000    2.04200000    0.14700000
 H                 -2.92200000   -2.32900000    0.17000000
 H                 -5.18600000   -0.83000000   -0.99800000
 H                 -6.02800000    1.61900000   -1.52000000
 H                 -4.58100000    3.52400000   -1.03700000
 H                 -2.15600000    3.13100000   -0.07800000









